Gurobi Basics/Week_3_quiz.sol
# Solution for model basic_model
# Objective value = 320
X 3.5999999999999996e+00
Y 1.4000000000000001e+00
